(set-logic ALL)
(declare-fun A_itev1 () Int)
(declare-fun A_itev2 () Int)
(declare-fun lift_o_3 () Int)
(declare-fun lift_s_3 () Int)
(declare-fun lift_o_2 () Int)
(declare-fun lift_o_1 () Int)
(declare-fun lift_s_1 () Int)
(declare-fun lift_o_0 () Int)
(declare-fun lift_s_0 () Int)
(declare-fun lift_v1 () Int)
(declare-fun lift_v0 () Int)
(declare-fun lift_v2 () Int)
(declare-fun lift_to_int$ (Int) Int)
(assert (or (= (+ (- A_itev1) (* (lift_to_int$ lift_v2) 2)) 32) (not (<= 16 (lift_to_int$ lift_v2)))))
(assert (or (= (+ (- A_itev1) (* (lift_to_int$ lift_v2) 2)) 16) (<= 16 (lift_to_int$ lift_v2))))
(assert (or (= (+ (- A_itev1) (* (lift_to_int$ lift_v2) 2)) 32) (= (+ (- A_itev1) (* (lift_to_int$ lift_v2) 2)) 16)))
(assert (or (<= 8 (lift_to_int$ lift_v2)) (= (+ (- A_itev2) (* (lift_to_int$ lift_v2) 2)) 0)))
(assert (or (not (<= 8 (lift_to_int$ lift_v2))) (= A_itev2 A_itev1)))
(assert (or (= (+ (- A_itev2) (* (lift_to_int$ lift_v2) 2)) 0) (= A_itev2 A_itev1)))
(assert (<= 0 (lift_to_int$ lift_v0)))
(assert (not (<= 16 (lift_to_int$ lift_v0))))
(assert (<= 0 (lift_to_int$ lift_v1)))
(assert (not (<= 16 (lift_to_int$ lift_v1))))
(assert (<= 0 (lift_to_int$ lift_v2)))
(assert (not (<= 16 (lift_to_int$ lift_v2))))
(assert (not (<= 2 (lift_to_int$ lift_s_0))))
(assert (<= 0 (lift_to_int$ lift_s_0)))
(assert (<= 0 (+ (* (lift_to_int$ lift_s_0) (- 8)) (lift_to_int$ lift_v1))))
(assert (not (<= 8 (+ (* (lift_to_int$ lift_s_0) (- 8)) (lift_to_int$ lift_v1)))))
(assert (= (<= 1 (lift_to_int$ lift_s_0)) (not (<= (lift_to_int$ lift_v1) 8))))
(assert (<= 0 (lift_to_int$ lift_o_0)))
(assert (<= (lift_to_int$ lift_o_0) 1))
(assert (<= 0 (+ (+ (+ (* (lift_to_int$ lift_v1) 2) (lift_to_int$ lift_v0)) (* (lift_to_int$ lift_s_0) (- 16))) (* (lift_to_int$ lift_o_0) (- 16)))))
(assert (not (<= 16 (+ (+ (+ (* (lift_to_int$ lift_v1) 2) (lift_to_int$ lift_v0)) (* (lift_to_int$ lift_s_0) (- 16))) (* (lift_to_int$ lift_o_0) (- 16))))))
(assert (= (not (<= (+ (+ (* (lift_to_int$ lift_v1) 2) (lift_to_int$ lift_v0)) (* (lift_to_int$ lift_s_0) (- 16))) 16)) (= (lift_to_int$ lift_o_0) 1)))
(assert (not (<= 4 (lift_to_int$ lift_s_1))))
(assert (<= 0 (lift_to_int$ lift_s_1)))
(assert (<= 0 (+ (* (lift_to_int$ lift_s_1) (- 4)) (lift_to_int$ lift_v2))))
(assert (not (<= 4 (+ (* (lift_to_int$ lift_s_1) (- 4)) (lift_to_int$ lift_v2)))))
(assert (= (<= 1 (lift_to_int$ lift_s_1)) (not (<= (lift_to_int$ lift_v2) 4))))
(assert (<= 0 (lift_to_int$ lift_o_1)))
(assert (<= (lift_to_int$ lift_o_1) 1))
(assert (<= 0 (+ (* (lift_to_int$ lift_o_1) (- 16)) (+ (+ (+ (+ (+ (* (lift_to_int$ lift_v1) 2) (* (lift_to_int$ lift_v2) 4)) (lift_to_int$ lift_v0)) (* (lift_to_int$ lift_s_1) (- 16))) (* (lift_to_int$ lift_s_0) (- 16))) (* (lift_to_int$ lift_o_0) (- 16))))))
(assert (not (<= 16 (+ (* (lift_to_int$ lift_o_1) (- 16)) (+ (+ (+ (+ (+ (* (lift_to_int$ lift_v1) 2) (* (lift_to_int$ lift_v2) 4)) (lift_to_int$ lift_v0)) (* (lift_to_int$ lift_s_1) (- 16))) (* (lift_to_int$ lift_s_0) (- 16))) (* (lift_to_int$ lift_o_0) (- 16)))))))
(assert (= (not (<= (+ (+ (+ (+ (+ (* (lift_to_int$ lift_v1) 2) (* (lift_to_int$ lift_v2) 4)) (lift_to_int$ lift_v0)) (* (lift_to_int$ lift_s_1) (- 16))) (* (lift_to_int$ lift_s_0) (- 16))) (* (lift_to_int$ lift_o_0) (- 16))) 16)) (= (lift_to_int$ lift_o_1) 1)))
(assert (<= 0 (lift_to_int$ lift_o_2)))
(assert (<= (lift_to_int$ lift_o_2) 1))
(assert (<= 0 (+ (+ (* (lift_to_int$ lift_o_2) (- 16)) (lift_to_int$ lift_v1)) A_itev2)))
(assert (not (<= 16 (+ (+ (* (lift_to_int$ lift_o_2) (- 16)) (lift_to_int$ lift_v1)) A_itev2))))
(assert (= (not (<= (+ A_itev2 (lift_to_int$ lift_v1)) 16)) (= (lift_to_int$ lift_o_2) 1)))
(assert (not (<= 2 (lift_to_int$ lift_s_3))))
(assert (<= 0 (lift_to_int$ lift_s_3)))
(assert (<= 0 (+ (+ (* (lift_to_int$ lift_s_3) (- 8)) (+ (* (lift_to_int$ lift_o_2) (- 16)) (lift_to_int$ lift_v1))) A_itev2)))
(assert (not (<= 8 (+ (+ (* (lift_to_int$ lift_s_3) (- 8)) (+ (* (lift_to_int$ lift_o_2) (- 16)) (lift_to_int$ lift_v1))) A_itev2))))
(assert (= (<= 1 (lift_to_int$ lift_s_3)) (not (<= (+ (+ (* (lift_to_int$ lift_o_2) (- 16)) (lift_to_int$ lift_v1)) A_itev2) 8))))
(assert (<= 0 (lift_to_int$ lift_o_3)))
(assert (<= (lift_to_int$ lift_o_3) 1))
(assert (<= 0 (+ (+ (* (lift_to_int$ lift_o_3) (- 16)) (+ (+ (+ (* (lift_to_int$ lift_o_2) (- 32)) (* (lift_to_int$ lift_v1) 2)) (* (lift_to_int$ lift_s_3) (- 16))) (lift_to_int$ lift_v0))) (* A_itev2 2))))
(assert (not (<= 16 (+ (+ (* (lift_to_int$ lift_o_3) (- 16)) (+ (+ (+ (* (lift_to_int$ lift_o_2) (- 32)) (* (lift_to_int$ lift_v1) 2)) (* (lift_to_int$ lift_s_3) (- 16))) (lift_to_int$ lift_v0))) (* A_itev2 2)))))
(assert (= (not (<= (+ (+ (+ (+ (* (lift_to_int$ lift_o_2) (- 32)) (* (lift_to_int$ lift_v1) 2)) (* (lift_to_int$ lift_s_3) (- 16))) (lift_to_int$ lift_v0)) (* A_itev2 2)) 16)) (= (lift_to_int$ lift_o_3) 1)))
(assert (not (= (+ (+ (+ (+ (+ (+ (+ (+ (* (lift_to_int$ lift_o_2) 16) (* (lift_to_int$ lift_v2) 2)) (* (lift_to_int$ lift_s_3) 8)) (* (lift_to_int$ lift_o_3) 8)) (* (lift_to_int$ lift_s_1) (- 8))) (* (lift_to_int$ lift_s_0) (- 8))) (* (lift_to_int$ lift_o_0) (- 8))) (* (lift_to_int$ lift_o_1) (- 8))) (- A_itev2)) 0)))
(assert true)
(assert (>= lift_o_3 0))
(assert (>= lift_s_3 0))
(assert (>= lift_o_2 0))
(assert (>= lift_o_1 0))
(assert (>= lift_s_1 0))
(assert (>= lift_o_0 0))
(assert (>= lift_s_0 0))
(assert (>= lift_v1 0))
(assert (>= lift_v0 0))
(assert (>= lift_v2 0))
(check-sat)
